100
32
9
12
25
18
21
20
29
18
20
2
24
1
22
2
2
24
19
21
6
9
4
8
15
28
4
18
18
22
25
4
7
20
4
2
24
17
25
25
31
22
4
26
17
15
12
11
21
14
4
16
1
4
12
13
13
1
12
6
2
19
1
21
20
14
4
13
6
11
17
18
16
22
31
1
4
10
2
20
4
18
1
3
14
23
11
19
3
3
6
12
14
3
28
12
12
13
11
1
14
4